
Gurobi 10.0.1 (win64) logging started Sun Sep 24 19:59:31 2023

Set parameter LogFile to value "C:\Users\erik_\Documents\GitHub\JointResearch\05. Models\06.Benchmarking\B.Operation_cost\9n/openStarNet_9n.log"
Set parameter Method to value 2
Set parameter MIPFocus to value 1
Set parameter Presolve to value 2
Set parameter RINS to value 100
Set parameter MIPGap to value 0.01
Set parameter Threads to value 12
Set parameter TimeLimit to value 76000
Set parameter IterationLimit to value 76000000
Gurobi Optimizer version 10.0.1 build v10.0.1rc0 (win64)

CPU model: Intel(R) Core(TM) i7-10875H CPU @ 2.30GHz, instruction set [SSE2|AVX|AVX2]
Thread count: 8 physical cores, 16 logical processors, using up to 12 threads

Optimize a model with 8229315 rows, 2843911 columns and 27693754 nonzeros
Model fingerprint: 0x56d57982
Variable types: 2843875 continuous, 36 integer (36 binary)
Coefficient statistics:
  Matrix range     [4e-04, 2e+02]
  Objective range  [1e+00, 1e+00]
  Bounds range     [4e-04, 2e+00]
  RHS range        [4e-04, 2e+00]
Presolve removed 550384 rows and 209694 columns (presolve time = 5s) ...
Presolve removed 1389040 rows and 209694 columns (presolve time = 10s) ...
Presolve removed 1389040 rows and 209694 columns (presolve time = 15s) ...
Presolve removed 1808368 rows and 323249 columns (presolve time = 20s) ...
Presolve removed 2026755 rows and 541636 columns (presolve time = 26s) ...
Presolve removed 2026755 rows and 541636 columns (presolve time = 30s) ...
Presolve removed 2026755 rows and 541636 columns (presolve time = 35s) ...
Presolve removed 2026755 rows and 541636 columns (presolve time = 40s) ...
Presolve removed 2026755 rows and 541636 columns (presolve time = 47s) ...
Presolve removed 2026755 rows and 541636 columns (presolve time = 50s) ...
Presolve removed 2026755 rows and 541636 columns (presolve time = 55s) ...
Presolve removed 2026755 rows and 541636 columns (presolve time = 60s) ...
Presolve removed 2026755 rows and 541636 columns (presolve time = 65s) ...
Presolve removed 2026755 rows and 541636 columns (presolve time = 73s) ...
Presolve removed 2026755 rows and 541636 columns (presolve time = 75s) ...
Presolve removed 2026755 rows and 541636 columns (presolve time = 80s) ...
Presolve removed 2026755 rows and 541636 columns (presolve time = 85s) ...
Presolve removed 2026755 rows and 541636 columns (presolve time = 90s) ...
Presolve removed 2026755 rows and 541636 columns (presolve time = 95s) ...
Presolve removed 2026755 rows and 541636 columns (presolve time = 101s) ...
Presolve removed 2026755 rows and 541636 columns
Presolve time: 100.81s
Presolved: 6202560 rows, 2302275 columns, 22377567 nonzeros
Variable types: 2302239 continuous, 36 integer (36 binary)
Root relaxation presolve removed 0 rows and 0 columns (presolve time = 5s) ...
Root relaxation presolve removed 0 rows and 0 columns (presolve time = 13s) ...
Root relaxation presolve removed 0 rows and 0 columns (presolve time = 15s) ...
Root relaxation presolve removed 0 rows and 0 columns (presolve time = 20s) ...
Root relaxation presolve removed 0 rows and 0 columns (presolve time = 27s) ...
Root relaxation presolved: 6202560 rows, 2302275 columns, 22377567 nonzeros

Root barrier log...

Ordering time: 4.23s

Barrier statistics:
 Dense cols : 36
 AA' NZ     : 1.211e+08
 Factor NZ  : 2.282e+08 (roughly 5.0 GB of memory)
 Factor Ops : 1.541e+10 (roughly 1 second per iteration)
 Threads    : 11

                  Objective                Residual
Iter       Primal          Dual         Primal    Dual     Compl     Time
   0   1.10264910e+06 -1.71112897e+08  2.58e+01 1.27e+00  4.89e+01   190s
   1   2.38704872e+05 -5.08553423e+07  3.00e+00 1.54e-01  6.97e+00   196s
   2   8.82514580e+04 -6.41884049e+06  1.37e-01 4.77e-08  6.60e-01   201s
   3   2.44743440e+04 -1.14664800e+06  1.51e-02 8.38e-09  1.15e-01   207s
   4   3.66822918e+03 -4.57157902e+04  2.00e-05 2.70e-10  4.81e-03   212s
   5   2.90835790e+03 -1.57058923e+04  1.12e-05 8.84e-11  1.81e-03   215s
   6   1.98001031e+03 -4.34697747e+03  5.06e-06 2.41e-11  6.16e-04   219s
   7   9.86464156e+02 -8.18637433e+02  1.12e-06 6.23e-12  1.76e-04   224s
   8   6.81198411e+02 -1.00274816e+02  4.40e-07 3.06e-12  7.61e-05   228s
   9   4.61806183e+02  2.57169110e+02  5.62e-08 1.87e-12  1.99e-05   235s
  10   4.38468123e+02  3.67009886e+02  3.44e-08 2.23e-12  6.96e-06   240s
  11   4.37256274e+02  3.79508611e+02  3.33e-08 2.46e-12  5.63e-06   244s
  12   4.12253597e+02  3.86290870e+02  1.10e-08 8.29e-13  2.53e-06   248s
  13   4.11507901e+02  3.88898846e+02  1.03e-08 1.07e-12  2.20e-06   252s
  14   4.10998299e+02  3.90057089e+02  9.84e-09 8.52e-13  2.04e-06   256s
  15   4.06594821e+02  3.91950963e+02  5.78e-09 6.76e-13  1.43e-06   261s
  16   4.05618707e+02  3.92815100e+02  4.87e-09 1.26e-12  1.25e-06   266s
  17   4.04695916e+02  3.93672008e+02  4.06e-09 6.21e-13  1.07e-06   272s
  18   4.03816664e+02  3.94421610e+02  4.66e-09 8.39e-13  9.15e-07   278s
  19   4.03449386e+02  3.94868303e+02  7.77e-09 1.56e-12  8.36e-07   284s
  20   4.02801137e+02  3.95265174e+02  2.27e-08 7.79e-13  7.34e-07   292s
  21   4.02279575e+02  3.95956519e+02  3.27e-08 1.59e-12  6.16e-07   302s
  22   4.01970307e+02  3.96224979e+02  2.91e-08 2.37e-12  5.60e-07   315s
  23   4.01827923e+02  3.96421541e+02  2.76e-08 1.72e-12  5.27e-07   326s
  24   4.01766447e+02  3.96522848e+02  2.65e-08 1.24e-12  5.11e-07   334s
  25   4.01603803e+02  3.96896778e+02  2.54e-08 1.64e-12  4.59e-07   349s
  26   4.01407133e+02  3.96994041e+02  2.17e-08 1.20e-12  4.30e-07   359s
  27   4.00974287e+02  3.97171144e+02  2.94e-08 1.42e-12  3.70e-07   372s
  28   4.00698944e+02  3.97883403e+02  1.18e-08 9.71e-13  2.74e-07   387s
  29   4.00510218e+02  3.98121774e+02  5.42e-09 6.84e-13  2.33e-07   401s
  30   4.00481126e+02  3.98291015e+02  5.00e-09 6.70e-13  2.13e-07   420s
  31   4.00426151e+02  3.98352107e+02  4.10e-09 8.82e-13  2.02e-07   432s
  32   4.00354728e+02  3.98547832e+02  4.69e-09 1.11e-12  1.76e-07   451s
  33   4.00320842e+02  3.98719343e+02  3.39e-09 8.41e-13  1.56e-07   473s
  34   4.00315560e+02  3.98892482e+02  4.25e-09 4.65e-13  1.39e-07   495s
  35   4.00293803e+02  3.98979631e+02  3.96e-09 7.55e-13  1.28e-07   518s
  36   4.00277255e+02  3.99198750e+02  1.06e-08 6.82e-13  1.05e-07   539s
  37   4.00264540e+02  3.99352762e+02  1.20e-08 6.25e-13  8.88e-08   554s
  38   4.00259453e+02  3.99382731e+02  1.21e-08 4.14e-13  8.54e-08   570s
  39   4.00254479e+02  3.99469539e+02  8.98e-09 7.44e-13  7.65e-08   584s
  40   4.00251545e+02  3.99538203e+02  7.16e-09 8.45e-13  6.95e-08   598s
  41   4.00249425e+02  3.99589130e+02  8.34e-09 7.02e-13  6.43e-08   620s
  42   4.00249309e+02  3.99676493e+02  3.75e-09 7.66e-13  5.58e-08   636s
  43   4.00246524e+02  4.00071050e+02  5.55e-09 1.33e-12  1.71e-08   649s
  44   4.00243382e+02  4.00148828e+02  9.43e-09 7.93e-13  9.21e-09   665s
  45   4.00243378e+02  4.00183272e+02  1.51e-08 9.54e-13  5.86e-09   681s
  46   4.00242815e+02  4.00184874e+02  1.20e-08 1.83e-12  5.64e-09   692s
  47   4.00241852e+02  4.00207866e+02  2.98e-09 2.56e-13  3.31e-09   700s
  48   4.00241110e+02  4.00236188e+02  1.04e-09 7.60e-13  4.79e-10   705s
  49   4.00241039e+02  4.00236934e+02  5.12e-10 5.11e-13  4.00e-10   711s
  50   4.00240959e+02  4.00239775e+02  4.21e-09 7.40e-12  1.15e-10   715s
  51   4.00240951e+02  4.00240941e+02  1.08e-09 9.80e-13  1.03e-12   720s
  52   4.00240951e+02  4.00240942e+02  1.86e-08 8.05e-13  9.04e-13   726s
  53   4.00240950e+02  4.00240943e+02  3.68e-08 4.39e-13  7.68e-13   731s
  54   4.00240950e+02  4.00240943e+02  4.21e-08 3.67e-13  6.01e-13   737s
  55   4.00240950e+02  4.00240944e+02  4.21e-08 4.16e-13  5.69e-13   742s
  56   4.00240950e+02  4.00240945e+02  4.16e-08 1.05e-10  4.36e-13   747s
  57   4.00240950e+02  4.00240945e+02  4.16e-08 1.05e-10  4.36e-13   753s
  58   4.00240950e+02  4.00240945e+02  4.15e-08 1.03e-10  4.30e-13   759s
  59   4.00240949e+02  4.00240946e+02  3.48e-08 7.67e-11  3.40e-13   764s

Barrier solved model in 59 iterations and 764.15 seconds (554.65 work units)
Optimal objective 4.00240949e+02


Root crossover log...

  866215 DPushes remaining with DInf 6.5992677e-04               769s
     497 DPushes remaining with DInf 0.0000000e+00               773s
       0 DPushes remaining with DInf 0.0000000e+00               775s

  655418 PPushes remaining with PInf 0.0000000e+00               775s
  174899 PPushes remaining with PInf 0.0000000e+00               781s
  102940 PPushes remaining with PInf 0.0000000e+00               786s
   49643 PPushes remaining with PInf 0.0000000e+00               794s
   31867 PPushes remaining with PInf 0.0000000e+00               801s
   19540 PPushes remaining with PInf 0.0000000e+00               809s
    9992 PPushes remaining with PInf 0.0000000e+00               818s
    4075 PPushes remaining with PInf 0.0000000e+00               826s
    1412 PPushes remaining with PInf 0.0000000e+00               833s
     429 PPushes remaining with PInf 0.0000000e+00               840s
       0 PPushes remaining with PInf 0.0000000e+00               853s

  Push phase complete: Pinf 0.0000000e+00, Dinf 1.1718978e-11    854s


Root simplex log...

Iteration    Objective       Primal Inf.    Dual Inf.      Time
  891031    4.0024095e+02   0.000000e+00   0.000000e+00    905s
  891031    4.0024095e+02   0.000000e+00   0.000000e+00    959s

Root relaxation: objective 4.002409e+02, 891031 iterations, 827.65 seconds (602.99 work units)

    Nodes    |    Current Node    |     Objective Bounds      |     Work
 Expl Unexpl |  Obj  Depth IntInf | Incumbent    BestBd   Gap | It/Node Time

     0     0  400.24095    0    6          -  400.24095      -     -  967s
H    0     0                    1513.0781027  400.24095  73.5%     - 1112s
     0     0  408.28021    0    1 1513.07810  408.28021  73.0%     - 2911s
H    0     0                     409.9898918  408.28021  0.42%     - 3289s

Cutting planes:
  MIR: 7855
  RLT: 952
  Relax-and-lift: 3887

Explored 1 nodes (1030210 simplex iterations) in 3291.91 seconds (2388.92 work units)
Thread count was 12 (of 16 available processors)

Solution count 2: 409.99 1513.08 

Optimal solution found (tolerance 1.00e-02)
Warning: max constraint violation (2.1225e-06) exceeds tolerance
Best objective 4.099898917803e+02, best bound 4.082802070781e+02, gap 0.4170%

Gurobi 10.0.1 (win64) logging started Sun Sep 24 21:00:23 2023

Set parameter LogFile to value "C:\Users\erik_\Documents\GitHub\JointResearch\05. Models\06.Benchmarking\B.Operation_cost\9n/openStarNet_9n.log"
Set parameter Method to value 2
Set parameter MIPFocus to value 1
Set parameter Presolve to value 2
Set parameter RINS to value 100
Set parameter MIPGap to value 0.01
Set parameter Threads to value 12
Set parameter TimeLimit to value 76000
Set parameter IterationLimit to value 76000000
No parameters matching 'relax_integrality' found
Gurobi Optimizer version 10.0.1 build v10.0.1rc0 (win64)

CPU model: Intel(R) Core(TM) i7-10875H CPU @ 2.30GHz, instruction set [SSE2|AVX|AVX2]
Thread count: 8 physical cores, 16 logical processors, using up to 12 threads

Optimize a model with 8229315 rows, 2843875 columns and 22661782 nonzeros
Model fingerprint: 0x8345ee90
Coefficient statistics:
  Matrix range     [4e-04, 2e+02]
  Objective range  [1e+00, 1e+00]
  Bounds range     [4e-04, 2e+00]
  RHS range        [4e-04, 1e+01]
Presolve removed 6298460 rows and 1784725 columns (presolve time = 5s) ...
Presolve removed 6315733 rows and 1801998 columns (presolve time = 10s) ...
Presolve removed 6321285 rows and 1833758 columns (presolve time = 15s) ...
Presolve removed 6964973 rows and 1848454 columns
Presolve time: 17.15s
Presolved: 1264342 rows, 1414749 columns, 4895851 nonzeros

Ordering time: 0.56s

Barrier statistics:
 AA' NZ     : 1.215e+07
 Factor NZ  : 2.362e+07 (roughly 1.3 GB of memory)
 Factor Ops : 5.192e+08 (less than 1 second per iteration)
 Threads    : 12

                  Objective                Residual
Iter       Primal          Dual         Primal    Dual     Compl     Time
   0   6.31710315e+05 -2.54719059e+07  3.23e+00 1.96e+01  3.39e+01    20s
   1   9.37841110e+04 -1.00474475e+07  2.37e-01 2.66e-02  4.67e+00    20s
   2   4.50553677e+04 -1.34502088e+06  1.81e-02 1.53e-03  5.16e-01    21s
   3   9.61692884e+03 -2.59583779e+05  1.75e-03 2.40e-04  9.60e-02    22s
   4   1.91237251e+03 -2.22426724e+04  1.00e-04 1.75e-05  8.57e-03    22s
   5   1.01559913e+03 -6.92598255e+03  4.92e-07 5.62e-06  2.82e-03    22s
   6   7.56559288e+02 -1.90056924e+03  1.73e-07 1.68e-06  9.43e-04    23s
   7   5.60429034e+02 -3.92228753e+02  6.97e-08 5.22e-07  3.38e-04    23s
   8   4.41706082e+02  1.98240257e+02  1.24e-08 1.16e-07  8.64e-05    24s
   9   4.21714412e+02  3.33188489e+02  4.30e-09 3.89e-08  3.14e-05    24s
  10   4.12897457e+02  4.04381130e+02  9.88e-10 2.02e-09  3.02e-06    25s
  11   4.10367979e+02  4.09876611e+02  1.22e-10 1.13e-12  1.74e-07    26s
  12   4.10043187e+02  4.09982286e+02  2.29e-10 1.59e-14  2.16e-08    26s
  13   4.09996322e+02  4.09987173e+02  1.95e-09 1.44e-14  3.24e-09    27s
  14   4.09991112e+02  4.09989790e+02  2.75e-09 1.28e-14  4.69e-10    27s
  15   4.09989893e+02  4.09989892e+02  6.40e-10 1.77e-14  4.69e-13    28s

Barrier solved model in 15 iterations and 28.15 seconds (26.45 work units)
Optimal objective 4.09989893e+02

Crossover log...

  155886 DPushes remaining with DInf 0.0000000e+00                30s
       0 DPushes remaining with DInf 0.0000000e+00                35s

  209880 PPushes remaining with PInf 0.0000000e+00                36s
   94029 PPushes remaining with PInf 0.0000000e+00                43s
   75971 PPushes remaining with PInf 0.0000000e+00                50s
   64331 PPushes remaining with PInf 0.0000000e+00                57s
   54286 PPushes remaining with PInf 0.0000000e+00                66s
   31482 PPushes remaining with PInf 0.0000000e+00                73s
   17838 PPushes remaining with PInf 0.0000000e+00                80s
    9752 PPushes remaining with PInf 0.0000000e+00                89s
    5795 PPushes remaining with PInf 0.0000000e+00                98s
    3888 PPushes remaining with PInf 0.0000000e+00               107s
    2564 PPushes remaining with PInf 0.0000000e+00               118s
    1537 PPushes remaining with PInf 0.0000000e+00               128s
       0 PPushes remaining with PInf 0.0000000e+00               138s

  Push phase complete: Pinf 0.0000000e+00, Dinf 1.7730668e-12    138s

Iteration    Objective       Primal Inf.    Dual Inf.      Time
  306120    4.0998989e+02   0.000000e+00   7.862500e-02    192s

Solved in 306120 iterations and 192.41 seconds (145.95 work units)
Optimal objective  4.099898919e+02
